c turning on binary mode checking
c parsing input formula with 259840 variables and 1039934 clauses
c finished parsing, read 3066065 bytes from proof file
c detected empty clause; start verification via backward checking
c 811 of 1039934 clauses in core                            
c 168 of 121148 lemmas in core using 2970 resolution steps
c 0 RAT lemmas in core; 5 redundant literals in core lemmas
s VERIFIED
c verification time: 0.900 seconds
